(set-logic LIA)
(synth-fun next ((brake Int) (distance Int) (speed Int) (throttle Int) (ignition Bool) (time Int) ) Int
	((Start Int) (Var Int) (StartBool Bool))
	((Start Int (
				 5
				 7
				 (ite StartBool Start Start)))

	(Var Int (
			 0
			 1
			 2
			 492
			 572
			 brake
			 distance
			 speed
			 throttle
			 time
			 (+ Var Var)						
			 (- Var Var)						
			 (* Var Var)))

	(StartBool Bool (
				 	 ignition
					(= Var Var)						
					(>= Var Var)						
					(<= Var Var)						
					(and StartBool StartBool)			
					(or  StartBool StartBool)				
					(not StartBool)))))

(constraint (= (next 0 0 0 0 true 270 ) 5))
(constraint (= (next 0 0 0 0 true 1345 ) 5))
(constraint (= (next 0 0 0 0 true 237 ) 7))
(constraint (= (next 0 0 0 0 true 117 ) 7))

(check-synth)
